Route #1: 51 16 49 24 50 18 25 55 31 9 39 72 58
Route #2: 29 5 36 69 71 60 70 20 37 15 57 13 54 19 35 7
Route #3: 53 14 59 66 11 65 38 10
Route #4: 67 34 46 8 52 27 45 4 75
Route #5: 30 74 48 47 21 61 28 22 62 2 68
Route #6: 6 33 73 1 43 42 64 41 56 23 63 3 44
Route #7: 17 32 40 12 26
Cost 721